
GUB cover cuts applied:  4
Cover cuts applied:  19
Mixed integer rounding cuts applied:  2
Zero-half cuts applied:  28
Gomory fractional cuts applied:  7

Root node processing (before b&c):
  Real time             =    0.19 sec. (143.53 ticks)
Parallel b&c, 4 threads:
  Real time             =    0.10 sec. (56.48 ticks)
  Sync time (average)   =    0.04 sec.
  Wait time (average)   =    0.00 sec.
                          ------------
Total (root+branch&cut) =    0.29 sec. (200.01 ticks)
Version identifier: 12.10.0.0 | 2019-11-26 | 843d4de
CPXPARAM_MIP_Interval                            10
CPXPARAM_MIP_Tolerances_AbsMIPGap                0.98999999999999999
Tried aggregator 2 times.
MIP Presolve eliminated 12568 rows and 12606 columns.
MIP Presolve modified 1 coefficients.
Aggregator did 64 substitutions.
Reduced MIP has 2273 rows, 1754 columns, and 6996 nonzeros.
Reduced MIP has 1754 binaries, 0 generals, 0 SOSs, and 0 indicators.
Presolve time = 0.03 sec. (19.41 ticks)
Probing fixed 26 vars, tightened 0 bounds.
Probing changed sense of 56 constraints.
Probing time = 0.01 sec. (8.34 ticks)
Tried aggregator 2 times.
MIP Presolve eliminated 278 rows and 208 columns.
Aggregator did 34 substitutions.
Reduced MIP has 1961 rows, 1512 columns, and 6017 nonzeros.
Reduced MIP has 1512 binaries, 0 generals, 0 SOSs, and 0 indicators.
Presolve time = 0.01 sec. (7.74 ticks)
Probing time = 0.00 sec. (3.99 ticks)
Tried aggregator 2 times.
Detecting symmetries...
MIP Presolve eliminated 113 rows and 91 columns.
Aggregator did 3 substitutions.
Reduced MIP has 1845 rows, 1418 columns, and 5650 nonzeros.
Reduced MIP has 1418 binaries, 0 generals, 0 SOSs, and 0 indicators.
Presolve time = 0.02 sec. (8.31 ticks)
Probing time = 0.00 sec. (2.51 ticks)
Clique table members: 1387.
MIP emphasis: balance optimality and feasibility.
MIP search method: dynamic search.
Parallel mode: deterministic, using up to 4 threads.
Root relaxation solution time = 0.01 sec. (4.23 ticks)

        Nodes                                         Cuts/
   Node  Left     Objective  IInf  Best Integer    Best Bound    ItCnt     Gap

      0     0       16.1667    91                     16.1667      215         
      0     0       16.1111    91                    Cuts: 72      592         
      0     0       15.6389    91                    Cuts: 97     1167         
      0     0       15.5556    91                   Cuts: 152     1414         
      0     0       15.5000    91                   Cuts: 133     1639         
*     0+    0                           13.0000       15.5000            19.23%
      0     0       15.3333    91       13.0000      Cuts: 51     1785   17.95%
Detecting symmetries...
      0     0       15.3333    91       13.0000      Cuts: 46     1854   17.95%
      0     0       15.3333    91       13.0000    MIRcuts: 1     1931   17.95%
Detecting symmetries...
      0     2       15.3333   143       13.0000       15.3333     1931   17.95%
Elapsed time = 0.41 sec. (308.15 ticks, tree = 0.02 MB, solutions = 1)
*     9+    3                           14.0000       15.3333             9.52%
     10     5       15.3333   118       14.0000       15.3333     2416    9.52%
     20     6        cutoff             14.0000       15.3333     4089    9.52%
     30     9       15.2083   167       14.0000       15.3333     5855    9.52%
     40     4       15.3333   182       14.0000       15.3333     7682    9.52%
     50     1    infeasible             14.0000       15.0000     9052    7.14%
the number of Nodes = 52
